p tw 20 53
0 1
0 11
0 12
0 10
0 15
0 8
0 7
0 18
1 12
1 17
2 3
2 16
2 13
2 4
2 17
2 6
2 18
3 6
3 10
3 19
3 4
3 16
3 5
4 5
4 9
4 19
4 12
4 14
4 11
5 6
5 8
5 16
6 13
6 12
6 14
7 8
7 18
7 15
7 14
7 12
8 9
8 10
8 11
9 17
10 11
10 17
11 13
14 15
15 17
16 19
16 17
17 18
17 19
